computational_data/real_data/solutions/penguins_trial_008_lex.sol
Optimal - objective value 7.71641900
      0 r_0                         0                0.985075
      1 r_1                         1                0.985075
      2 r_2                         0                0.985075
      3 r_3                         0                0.985075
      4 r_4                         0                0.985075
      5 r_5                         0                0.970149
      6 r_6                         0                0.970149
      7 r_7                         0                0.925373
      8 r_8                         0                0.850746
      9 r_9                         1                0.835821
     10 r_10                        1                0.835821
     11 r_11                        0                0.835821
     12 r_12                        1                0.820896
     13 r_13                        1                 0.80597
     14 r_14                        1                 0.80597
     15 r_15                        1                0.791045
     16 b_0                         0                0.985075
     17 b_1                         0                0.985075
     18 b_2                         0                0.985075
     19 b_3                         0                0.985075
     20 b_4                         1                0.985075
     21 b_5                         0                0.970149
     22 b_6                         0                0.970149
     23 b_7                         0                0.925373
     24 b_8                         1                0.850746
     25 b_9                         0                0.835821
     26 b_10                        0                0.835821
     27 b_11                        0                0.835821
     28 b_12                        0                0.820896
     29 b_13                        0                 0.80597
     30 b_14                        0                 0.80597
     31 b_15                        0                0.791045
